Cost: 435
0-6-23-7-26-31-28-8-27-0
0-32-2-29-20-35-36-3-22-1-0
0-12-17-4-18-0
0-5-10-30-34-21-16-9-38-11-0
0-37-15-44-42-19-41-13-25-14-0
Cost: 435
0-37-15-44-42-19-41-13-25-14-0
0-5-38-9-10-30-34-21-16-11-0
0-27-8-28-31-26-7-23-6-0
0-18-4-17-12-0
0-32-2-29-20-35-36-3-22-1-0
Cost: 435
0-6-23-7-26-31-28-8-27-0
0-32-2-29-20-35-36-3-22-1-0
0-12-17-4-18-0
0-5-10-30-34-21-16-9-38-11-0
0-37-15-44-42-19-41-13-25-14-0
Cost: 435
0-11-16-21-34-30-10-9-38-5-0
0-14-25-13-41-19-42-44-15-37-0
0-12-17-4-18-0
0-6-23-7-26-31-28-8-27-0
0-1-22-3-36-35-20-29-2-32-0
Cost: 435
0-5-10-30-34-21-29-16-9-38-0
0-18-4-17-12-0
0-11-2-20-35-36-3-22-1-32-0
0-27-8-28-31-26-7-23-6-0
0-14-25-13-41-19-42-44-15-37-0
Cost: 435
0-14-25-13-41-19-42-44-15-37-0
0-38-9-16-29-21-34-30-10-5-0
0-27-8-28-31-26-7-23-6-0
0-32-1-22-3-36-35-20-2-11-0
0-12-17-4-18-0
Cost: 435
0-14-25-13-41-19-42-44-15-37-0
0-5-10-30-34-21-16-9-38-11-0
0-6-23-7-26-31-28-8-27-0
0-12-17-4-18-0
0-1-22-3-36-35-20-29-2-32-0
Cost: 435
0-14-25-13-41-19-42-44-15-37-0
0-5-10-30-34-21-16-9-38-11-0
0-6-23-7-26-31-28-8-27-0
0-12-17-4-18-0
0-1-22-3-36-35-20-29-2-32-0
Cost: 435
0-14-25-13-41-19-42-44-15-37-0
0-5-10-30-34-21-16-9-38-11-0
0-6-23-7-26-31-28-8-27-0
0-12-17-4-18-0
0-1-22-3-36-35-20-29-2-32-0
Cost: 435
0-14-25-13-41-19-42-44-15-37-0
0-5-10-30-34-21-16-9-38-11-0
0-6-23-7-26-31-28-8-27-0
0-12-17-4-18-0
0-1-22-3-36-35-20-29-2-32-0
Cost: 435
0-37-15-44-42-19-41-13-25-14-0
0-18-4-17-12-0
0-11-38-9-16-21-34-30-10-5-0
0-6-23-7-26-31-28-8-27-0
0-1-22-3-36-35-20-29-2-32-0
Cost: 435
0-37-15-44-42-19-41-13-25-14-0
0-18-4-17-12-0
0-11-38-9-16-21-34-30-10-5-0
0-6-23-7-26-31-28-8-27-0
0-1-22-3-36-35-20-29-2-32-0
Cost: 435
0-37-15-44-42-19-41-13-25-14-0
0-18-4-17-12-0
0-11-38-9-16-21-34-30-10-5-0
0-6-23-7-26-31-28-8-27-0
0-1-22-3-36-35-20-29-2-32-0
Cost: 435
0-18-4-17-12-0
0-14-25-13-41-19-42-44-15-37-0
0-11-16-21-34-30-10-9-38-5-0
0-6-23-7-26-31-28-8-27-0
0-1-22-3-36-35-20-29-2-32-0
Cost: 435
0-37-15-44-42-19-41-13-25-14-0
0-18-4-17-12-0
0-11-38-9-16-21-34-30-10-5-0
0-6-23-7-26-31-28-8-27-0
0-1-22-3-36-35-20-29-2-32-0
Cost: 435
0-37-15-44-42-19-41-13-25-14-0
0-18-4-17-12-0
0-11-38-9-16-21-34-30-10-5-0
0-6-23-7-26-31-28-8-27-0
0-1-22-3-36-35-20-29-2-32-0
Cost: 435
0-6-23-7-26-31-28-8-27-0
0-37-15-44-42-19-41-13-25-14-0
0-32-1-22-3-36-35-20-2-11-0
0-5-10-30-34-21-29-16-9-38-0
0-18-4-17-12-0
Cost: 435
0-37-15-44-42-19-41-13-25-14-0
0-18-4-17-12-0
0-32-2-29-20-35-36-3-22-1-0
0-6-23-7-26-31-28-8-27-0
0-11-38-9-16-21-34-30-10-5-0
Cost: 435
0-38-9-16-29-21-34-30-10-5-0
0-18-4-17-12-0
0-37-15-44-42-19-41-13-25-14-0
0-6-23-7-26-31-28-8-27-0
0-11-2-20-35-36-3-22-1-32-0
Cost: 435
0-38-9-16-29-21-34-30-10-5-0
0-18-4-17-12-0
0-37-15-44-42-19-41-13-25-14-0
0-6-23-7-26-31-28-8-27-0
0-11-2-20-35-36-3-22-1-32-0
Cost: 435
0-12-17-4-18-0
0-14-25-13-41-19-42-44-15-37-0
0-11-16-21-34-30-10-9-38-5-0
0-27-8-28-31-26-7-23-6-0
0-1-22-3-36-35-20-29-2-32-0
Cost: 435
0-12-17-4-18-0
0-14-25-13-41-19-42-44-15-37-0
0-11-16-21-34-30-10-9-38-5-0
0-27-8-28-31-26-7-23-6-0
0-1-22-3-36-35-20-29-2-32-0
Cost: 435
0-37-15-44-42-19-41-13-25-14-0
0-5-10-30-34-21-29-16-9-38-0
0-27-8-28-31-26-7-23-6-0
0-18-4-17-12-0
0-32-1-22-3-36-35-20-2-11-0
Cost: 435
0-12-17-4-18-0
0-14-25-13-41-19-42-44-15-37-0
0-11-16-21-34-30-10-9-38-5-0
0-27-8-28-31-26-7-23-6-0
0-1-22-3-36-35-20-29-2-32-0
Cost: 435
0-37-15-44-42-19-41-13-25-14-0
0-18-4-17-12-0
0-32-2-29-20-35-36-3-22-1-0
0-6-23-7-26-31-28-8-27-0
0-11-38-9-16-21-34-30-10-5-0
Cost: 435
0-38-9-16-29-21-34-30-10-5-0
0-18-4-17-12-0
0-37-15-44-42-19-41-13-25-14-0
0-6-23-7-26-31-28-8-27-0
0-11-2-20-35-36-3-22-1-32-0
Cost: 435
0-18-4-17-12-0
0-11-2-20-35-36-3-22-1-32-0
0-6-23-7-26-31-28-8-27-0
0-14-25-13-41-19-42-44-15-37-0
0-5-10-30-34-21-29-16-9-38-0
Cost: 435
0-37-15-44-42-19-41-13-25-14-0
0-18-4-17-12-0
0-6-23-7-26-31-28-8-27-0
0-11-38-9-16-21-34-30-10-5-0
0-1-22-3-36-35-20-29-2-32-0
Cost: 435
0-37-15-44-42-19-41-13-25-14-0
0-5-38-9-10-30-34-21-16-11-0
0-32-2-29-20-35-36-3-22-1-0
0-18-4-17-12-0
0-6-23-7-26-31-28-8-27-0
Cost: 435
0-37-15-44-42-19-41-13-25-14-0
0-27-8-28-31-26-7-23-6-0
0-18-4-17-12-0
0-5-38-9-10-30-34-21-16-11-0
0-32-2-29-20-35-36-3-22-1-0
Cost: 435
0-37-15-44-42-19-41-13-25-14-0
0-38-9-16-29-21-34-30-10-5-0
0-11-2-20-35-36-3-22-1-32-0
0-27-8-28-31-26-7-23-6-0
0-12-17-4-18-0
